Route #1: 20 30 18 42 1 25 41 
Route #2: 26 46 13 15 32 34 22 4 
Route #3: 45 23 50 12 17 49 19 35 
Route #4: 6 47 44 51 29 10 
Route #5: 48 16 9 38 2 43 33 7 
Route #6: 24 31 28 11 21 14 39 3 
Route #7: 40 36 37 8 27 5 
cost 869.446
execution_time 14.977
